SPARKNaCl/why3-cvc5/sparknacl-hashing-sha2_common.adb_85_13_range_check4_1.smt2
;; produced by cvc5.drv ;;
(set-logic ALL)
(set-info :smt-lib-version 2.6)
;;; generated by SMT-LIB2 driver
;;; SMT-LIB2 driver: bit-vectors, common part
;;; SMT-LIB2: integer arithmetic
;; "pow2"
(declare-fun pow2 (Int) Int)

(declare-const two_power_size_minus_one Int)

;; "two_power_size_minus_one_val"
(assert (= two_power_size_minus_one (pow2 (- 8 1))))

;; "min"
(define-fun min ((x Int) (y Int)) Int
  (ite (<= x y) x y))

;; "max"
(define-fun max ((x Int) (y Int)) Int
  (ite (<= x y) y x))

;; "Min_r"
(assert (forall ((x Int) (y Int)) (=> (<= y x) (= (min x y) y))))

;; "Max_l"
(assert (forall ((x Int) (y Int)) (=> (<= y x) (= (max x y) x))))

;; "Min_comm"
(assert (forall ((x Int) (y Int)) (= (min x y) (min y x))))

;; "Max_comm"
(assert (forall ((x Int) (y Int)) (= (max x y) (max y x))))

;; "Min_assoc"
(assert
  (forall ((x Int) (y Int) (z Int)) (= (min (min x y) z) (min x (min y z)))))

;; "Max_assoc"
(assert
  (forall ((x Int) (y Int) (z Int)) (= (max (max x y) z) (max x (max y z)))))

;; "lsr"
(declare-fun lsr ((_ BitVec 64)
  Int) (_ BitVec 64))

(declare-const two_power_size_minus_one1 Int)

;; "two_power_size_minus_one_val"
(assert (= two_power_size_minus_one1 (pow2 (- 64 1))))

;; "lsr_bv_is_lsr"
(assert
  (forall ((x (_ BitVec 64)) (n (_ BitVec 64)))
    (= (bvlshr x n) (lsr x (bv2nat n)))))

(declare-const input (_ BitVec 64))

(declare-sort byte 0)

(declare-datatypes ((byte__init_wrapper 0))
  (((byte__init_wrapperqtmk (rec__value byte)(us_attr__init Bool)))))

;; "big_endian_get_byte"
(declare-fun big_endian_get_byte ((_ BitVec 64)
  Int) (_ BitVec 8))

;; "big_endian_get_byte__function_guard"
(declare-fun big_endian_get_byte__function_guard ((_ BitVec 8)
  (_ BitVec 64)
  Int) Bool)

(declare-sort map1 0)

;; "has_bounds"
(declare-fun has_bounds (map1
  Int
  Int) Bool)

;; "get"
(declare-fun get (map1
  Int) byte__init_wrapper)

;; "set"
(declare-fun set (map1
  Int
  byte__init_wrapper) map1)

;; "set_eq"
(assert
  (forall ((a map1) (i Int) (v byte__init_wrapper))
    (! (= (get (set a i v) i) v) :pattern ((set a i v)) )))

;; "set_neq"
(assert
  (forall ((a map1) (i Int) (v byte__init_wrapper))
    (! (forall ((j Int))
         (! (=> (not (= i j)) (= (get (set a i v) j) (get a j))) :pattern (
         (get
           a
           j)) :pattern ((get (set a i v) j)) )) :pattern ((set a i v)) )))

;; "set_has_bounds"
(assert
  (forall ((a map1) (i Int) (f Int) (l Int) (v byte__init_wrapper))
    (! (=>
         (and (<= f i) (<= i l))
         (=> (has_bounds a f l) (has_bounds (set a i v) f l))) :pattern (
    (has_bounds
      (set a i v)
      f
      l)) )))

;; "to_rep"
(declare-fun to_rep (byte) (_ BitVec 8))

;; "of_rep"
(declare-fun of_rep ((_ BitVec 8)) byte)

;; "inversion_axiom"
(assert
  (forall ((x byte)) (! (= (of_rep (to_rep x)) x) :pattern ((to_rep x)) )))

;; "range_axiom"
(assert true)

;; "coerce_axiom"
(assert
  (forall ((x (_ BitVec 8)))
    (! (= (to_rep (of_rep x)) x) :pattern ((to_rep (of_rep x))) )))

;; "in_range"
(define-fun in_range ((x Int)) Bool
  (and (<= 0 x) (<= x 7)))

(declare-sort tinteger_32B 0)

;; "tinteger_32B'int"
(declare-fun tinteger_32Bqtint (tinteger_32B) Int)

;; "tinteger_32B'axiom"
(assert
  (forall ((i tinteger_32B))
    (and
      (<= (- 2147483648) (tinteger_32Bqtint i))
      (<= (tinteger_32Bqtint i) 2147483647))))

;; "in_range"
(define-fun in_range1 ((x Int)) Bool
  (and (<= (- 2147483648) x) (<= x 2147483647)))

;; "to_rep"
(define-fun to_rep1 ((x tinteger_32B)) Int
  (tinteger_32Bqtint x))

;; "of_rep"
(declare-fun of_rep1 (Int) tinteger_32B)

;; "inversion_axiom"
(assert
  (forall ((x tinteger_32B))
    (! (= (of_rep1 (to_rep1 x)) x) :pattern ((to_rep1 x)) )))

;; "range_axiom"
(assert
  (forall ((x tinteger_32B))
    (! (in_range1 (to_rep1 x)) :pattern ((to_rep1 x)) )))

;; "coerce_axiom"
(assert
  (forall ((x Int))
    (! (=> (in_range1 x) (= (to_rep1 (of_rep1 x)) x)) :pattern ((to_rep1
                                                                  (of_rep1 x))) )))

;; "big_endian_get_byte__post_axiom"
(assert
  (forall ((param__input (_ BitVec 64)))
    (forall ((param__index Int))
      (! (=>
           (in_range param__index)
           (let ((result (big_endian_get_byte param__input param__index)))
             (=>
               (big_endian_get_byte__function_guard
                 result
                 param__input
                 param__index)
               (= result ((_ extract 7 0) (bvurem (bvlshr param__input ((_ int2bv 64) (* (- 7 param__index) 8))) #x0000000000000100)))))) :pattern (
      (big_endian_get_byte
        param__input
        param__index)) ))))

;; Goal "def'vc"
;; File "sparknacl-hashing-sha2_common.ads", line 10, characters 0-0
(assert
  (not
  (forall ((output map1))
    (=>
      (has_bounds output 0 7)
      (forall ((x (_ BitVec 64)))
        (=>
          (= x input)
          (forall ((o byte))
            (=>
              (= (to_rep o) ((_ extract 7 0) (bvurem x #x0000000000000100)))
              (forall ((output1 map1))
                (=>
                  (= output1 (set output 7 (byte__init_wrapperqtmk o true)))
                  (=>
                    (= (us_attr__init (get output1 7)) true)
                    (=>
                      (big_endian_get_byte__function_guard
                        (big_endian_get_byte input 7)
                        input
                        7)
                      (=>
                        (= (to_rep (rec__value (get output1 7))) (big_endian_get_byte
                                                                   input
                                                                   7))
                        (forall ((i Int))
                          (=>
                            (= i 6)
                            (=>
                              (= (and (ite (<= 0 i) true false) (ite (<= i 6)
                                                                  true
                                                                  false)) true)
                              (forall ((x1 (_ BitVec 64)))
                                (=>
                                  (= x1 (bvlshr x ((_ int2bv 64) 8)))
                                  (forall ((o1 byte))
                                    (=>
                                      (= (to_rep o1) ((_ extract 7 0) (bvurem x1 #x0000000000000100)))
                                      (forall ((output2 map1))
                                        (=>
                                          (= output2 (set
                                                       output1
                                                       i
                                                       (byte__init_wrapperqtmk
                                                         o1
                                                         true)))
                                          (=>
                                            (= x1 (bvlshr input ((_ int2bv 64) (* (- 7 i) 8))))
                                            (=> (<= i 7) (<= 7 7)))))))))))))))))))))))))

(check-sat)
